
******************************************************************************
This program contains Ipopt, a library for large-scale nonlinear optimization.
 Ipopt is released as open source code under the Eclipse Public License (EPL).
         For more information visit http://projects.coin-or.org/Ipopt

This version of Ipopt was compiled from source code available at
    https://github.com/IDAES/Ipopt as part of the Institute for the Design of
    Advanced Energy Systems Process Systems Engineering Framework (IDAES PSE
    Framework) Copyright (c) 2018-2019. See https://github.com/IDAES/idaes-pse.

This version of Ipopt was compiled using HSL, a collection of Fortran codes
    for large-scale scientific computation.  All technical papers, sales and
    publicity material resulting from use of the HSL codes within IPOPT must
    contain the following acknowledgement:
        HSL, a collection of Fortran codes for large-scale scientific
        computation. See http://www.hsl.rl.ac.uk.
******************************************************************************

This is Ipopt version 3.13.2, running with linear solver ma27.

Number of nonzeros in equality constraint Jacobian...:      808
Number of nonzeros in inequality constraint Jacobian.:        0
Number of nonzeros in Lagrangian Hessian.............:      702

Total number of variables............................:      351
                     variables with only lower bounds:      108
                variables with lower and upper bounds:      189
                     variables with only upper bounds:        0
Total number of equality constraints.................:      350
Total number of inequality constraints...............:        0
        inequality constraints with only lower bounds:        0
   inequality constraints with lower and upper bounds:        0
        inequality constraints with only upper bounds:        0

iter    objective    inf_pr   inf_du lg(mu)  ||d||  lg(rg) alpha_du alpha_pr  ls
   0  0.0000000e+00 4.46e-01 2.22e-16  -1.0 0.00e+00    -  0.00e+00 0.00e+00   0
   1  1.0338528e+00 3.44e-01 4.59e+04  -1.0 2.60e+05    -  4.16e-01 2.40e-01h  1
   2  1.0889652e+00 3.41e-01 4.57e+04  -1.0 2.33e+05    -  7.42e-01 7.88e-03h  1
   3  2.6821787e+01 4.96e-02 2.08e+04  -1.0 2.79e+05    -  7.40e-01 9.90e-01h  1
   4  3.4696881e+01 1.70e-03 1.45e+03  -1.0 4.78e+04    -  9.45e-01 9.90e-01h  1
   5  3.4952261e+01 1.84e-05 3.90e+01  -1.0 1.50e+03    -  9.90e-01 9.90e-01h  1
   6  3.4952759e+01 1.81e-05 1.29e+07  -1.0 3.25e+02    -  9.90e-01 1.55e-02f  7
   7  3.4959918e+01 1.70e-05 2.46e+07  -1.0 1.24e+03    -  9.90e-01 6.19e-02f  5
   8  3.5075612e+01 1.88e-04 3.90e+05  -1.0 1.27e+03    -  1.00e+00 9.90e-01H  1
   9  3.5070825e+01 2.27e-06 1.44e+07  -1.0 5.32e+01    -  1.00e+00 9.90e-01h  1
iter    objective    inf_pr   inf_du lg(mu)  ||d||  lg(rg) alpha_du alpha_pr  ls
  10  3.5071025e+01 2.66e-08 1.44e+09  -1.0 2.21e+00    -  1.00e+00 9.90e-01h  1
  11  3.5071027e+01 2.67e-10 1.44e+11  -1.0 2.24e-02    -  1.00e+00 9.90e-01h  1
In iteration 11, 27 Slacks too small, adjusting variable bounds
  12  3.5071027e+01 2.66e-12 1.44e+13  -1.0 2.24e-04    -  1.00e+00 9.90e-01h  1
  13  3.5071027e+01 1.96e-12 7.10e+14  -1.0 2.35e-06    -  1.00e+00 5.00e-01h  2
  14  3.5071027e+01 1.47e-12 3.55e+14  -1.0 1.10e-06    -  1.00e+00 5.00e-01h  2
  15  3.5071027e+01 8.14e-13 2.66e+14  -1.0 5.73e-07    -  1.00e+00 2.50e-01h  3
  16  3.5071027e+01 9.92e-13 2.58e+14  -1.0 4.70e-07    -  1.00e+00 3.12e-02h  6
  17  3.5071027e+01 1.83e-12 2.26e+14  -1.0 4.33e-07    -  1.00e+00 1.25e-01h  4
  18  3.5071027e+01 1.94e-12 2.26e+14  -1.0 3.49e-07    -  1.00e+00 2.44e-04h 13
  19  3.5071027e+01 4.36e-13 2.93e-02  -1.0 3.46e-07    -  1.00e+00 1.00e+00h  1
iter    objective    inf_pr   inf_du lg(mu)  ||d||  lg(rg) alpha_du alpha_pr  ls
  20  3.5071027e+01 1.06e-12 1.44e+13  -9.0 1.48e+03    -  9.96e-01 8.08e-07f 21
  21  3.5071027e+01 1.06e-12 1.45e+13  -9.0 1.25e+03    -  9.98e-01 1.14e-13h 44
  22  3.5071027e+01 1.06e-12 1.45e+13  -9.0 1.26e+03    -  1.00e+00 1.42e-14h 47
  23  3.5071027e+01 1.06e-12 1.45e+13  -9.0 1.26e+03    -  1.00e+00 7.11e-15h 48
  24  3.5071027e+01 1.06e-12 1.45e+13  -9.0 1.26e+03    -  1.00e+00 3.55e-15h 49
  25  3.4956413e+01 1.36e-03 2.52e+00  -9.0 1.26e+03    -  1.00e+00 1.00e+00f  1
  26  3.4954245e+01 2.82e-09 1.09e-03  -9.0 2.33e+01    -  1.00e+00 1.00e+00h  1
  27  3.4954245e+01 9.35e-12 2.91e-11  -9.0 3.79e-04    -  1.00e+00 1.00e+00h  1

Number of Iterations....: 27

                                   (scaled)                 (unscaled)
Objective...............:   3.4954245244084959e+01    3.4954245244084959e+01
Dual infeasibility......:   2.9103830456733704e-11    2.9103830456733704e-11
Constraint violation....:   9.3498542241832183e-12    9.3498542241832183e-12
Complementarity.........:   9.0909090909128847e-10    9.0909090909128847e-10
Overall NLP error.......:   1.2414673045410164e-11    9.0909090909128847e-10


Number of objective function evaluations             = 297
Number of objective gradient evaluations             = 28
Number of equality constraint evaluations            = 297
Number of inequality constraint evaluations          = 0
Number of equality constraint Jacobian evaluations   = 28
Number of inequality constraint Jacobian evaluations = 0
Number of Lagrangian Hessian evaluations             = 27
Total CPU secs in IPOPT (w/o function evaluations)   =      0.073
Total CPU secs in NLP function evaluations           =      2.085

EXIT: Optimal Solution Found.
